NAME : rnd70_20.tsp
TYPE : TSP
DIMENSION : 20
EDGE_WEIGHT_TYPE : EUC_2D
NODE_COORD_SECTION
0 778 804
1 992 383
2 142 187
3 478 457
4 254 287
5 581 325
6 276 571
7 92 723
8 659 174
9 737 261
10 164 939
11 709 126
12 686 242
13 869 504
14 518 348
15 434 370
16 241 978
17 256 720
18 905 558
19 409 350
